NAME          
ROWS
 N  OBJ
 L  c1
COLUMNS
    MARKER    'MARKER'                 'INTORG'
    x[1]      c1        718
    x[1]      OBJ       -756
    x[2]      c1        683
    x[2]      OBJ       -775
    x[3]      c1        543
    x[3]      OBJ       -588
    x[4]      c1        885
    x[4]      OBJ       -963
    x[5]      c1        406
    x[5]      OBJ       -439
    x[6]      c1        761
    x[6]      OBJ       -842
    x[7]      c1        306
    x[7]      OBJ       -212
    x[8]      c1        407
    x[8]      OBJ       -405
    x[9]      c1        266
    x[9]      OBJ       -290
    x[10]     c1        1024
    x[10]     OBJ       -936
    x[11]     c1        208
    x[11]     OBJ       -110
    x[12]     c1        28
    x[12]     OBJ       -111
    x[13]     c1        611
    x[13]     OBJ       -651
    x[14]     c1        263
    x[14]     OBJ       -327
    x[15]     c1        807
    x[15]     OBJ       -739
    x[16]     c1        636
    x[16]     OBJ       -655
    x[17]     c1        1042
    x[17]     OBJ       -978
    x[18]     c1        897
    x[18]     OBJ       -834
    x[19]     c1        821
    x[19]     OBJ       -865
    x[20]     c1        797
    x[20]     OBJ       -831
    x[21]     c1        452
    x[21]     OBJ       -376
    x[22]     c1        204
    x[22]     OBJ       -145
    x[23]     c1        777
    x[23]     OBJ       -746
    x[24]     c1        665
    x[24]     OBJ       -630
    x[25]     c1        912
    x[25]     OBJ       -867
    x[26]     c1        539
    x[26]     OBJ       -593
    x[27]     c1        249
    x[27]     OBJ       -258
    x[28]     c1        669
    x[28]     OBJ       -708
    x[29]     c1        203
    x[29]     OBJ       -251
    x[30]     c1        932
    x[30]     OBJ       -948
    x[31]     c1        465
    x[31]     OBJ       -420
    x[32]     c1        977
    x[32]     OBJ       -988
    x[33]     c1        776
    x[33]     OBJ       -791
    x[34]     c1        12
    x[34]     OBJ       -103
    x[35]     c1        368
    x[35]     OBJ       -344
    x[36]     c1        138
    x[36]     OBJ       -170
    x[37]     c1        444
    x[37]     OBJ       -395
    x[38]     c1        874
    x[38]     OBJ       -932
    x[39]     c1        902
    x[39]     OBJ       -843
    x[40]     c1        782
    x[40]     OBJ       -773
    x[41]     c1        125
    x[41]     OBJ       -116
    x[42]     c1        268
    x[42]     OBJ       -191
    x[43]     c1        56
    x[43]     OBJ       -140
    x[44]     c1        99
    x[44]     OBJ       -55
    x[45]     c1        318
    x[45]     OBJ       -372
    x[46]     c1        440
    x[46]     OBJ       -523
    x[47]     c1        622
    x[47]     OBJ       -523
    x[48]     c1        604
    x[48]     OBJ       -571
    x[49]     c1        306
    x[49]     OBJ       -340
    x[50]     c1        398
    x[50]     OBJ       -382
    x[51]     c1        639
    x[51]     OBJ       -703
    x[52]     c1        852
    x[52]     OBJ       -824
    x[53]     c1        1
    x[53]     OBJ       -32
    x[54]     c1        1
    x[54]     OBJ       -72
    x[55]     c1        520
    x[55]     OBJ       -568
    x[56]     c1        916
    x[56]     OBJ       -877
    x[57]     c1        390
    x[57]     OBJ       -294
    x[58]     c1        242
    x[58]     OBJ       -174
    x[59]     c1        394
    x[59]     OBJ       -438
    x[60]     c1        60
    x[60]     OBJ       -136
    x[61]     c1        164
    x[61]     OBJ       -127
    x[62]     c1        770
    x[62]     OBJ       -823
    x[63]     c1        309
    x[63]     OBJ       -238
    x[64]     c1        1026
    x[64]     OBJ       -980
    x[65]     c1        898
    x[65]     OBJ       -890
    x[66]     c1        92
    x[66]     OBJ       -68
    x[67]     c1        941
    x[67]     OBJ       -911
    x[68]     c1        429
    x[68]     OBJ       -500
    x[69]     c1        630
    x[69]     OBJ       -706
    x[70]     c1        694
    x[70]     OBJ       -750
    x[71]     c1        778
    x[71]     OBJ       -734
    x[72]     c1        857
    x[72]     OBJ       -758
    x[73]     c1        156
    x[73]     OBJ       -153
    x[74]     c1        463
    x[74]     OBJ       -419
    x[75]     c1        936
    x[75]     OBJ       -877
    x[76]     c1        1014
    x[76]     OBJ       -981
    x[77]     c1        643
    x[77]     OBJ       -592
    x[78]     c1        433
    x[78]     OBJ       -448
    x[79]     c1        476
    x[79]     OBJ       -551
    x[80]     c1        442
    x[80]     OBJ       -458
    x[81]     c1        454
    x[81]     OBJ       -369
    x[82]     c1        68
    x[82]     OBJ       -110
    x[83]     c1        1060
    x[83]     OBJ       -969
    x[84]     c1        685
    x[84]     OBJ       -628
    x[85]     c1        144
    x[85]     OBJ       -67
    x[86]     c1        651
    x[86]     OBJ       -567
    x[87]     c1        -26
    x[87]     OBJ       -64
    x[88]     c1        1072
    x[88]     OBJ       -995
    x[89]     c1        568
    x[89]     OBJ       -516
    x[90]     c1        625
    x[90]     OBJ       -565
    x[91]     c1        232
    x[91]     OBJ       -197
    x[92]     c1        935
    x[92]     OBJ       -957
    x[93]     c1        973
    x[93]     OBJ       -908
    x[94]     c1        819
    x[94]     OBJ       -903
    x[95]     c1        792
    x[95]     OBJ       -875
    x[96]     c1        1085
    x[96]     OBJ       -992
    x[97]     c1        583
    x[97]     OBJ       -534
    x[98]     c1        198
    x[98]     OBJ       -140
    x[99]     c1        532
    x[99]     OBJ       -434
    x[100]    c1        378
    x[100]    OBJ       -355
RHS
    rhs       c1        27340
RANGES
BOUNDS
 LO bounds    x[1]      0
 PL bounds    x[1]
 LO bounds    x[2]      0
 PL bounds    x[2]
 LO bounds    x[3]      0
 PL bounds    x[3]
 LO bounds    x[4]      0
 PL bounds    x[4]
 LO bounds    x[5]      0
 PL bounds    x[5]
 LO bounds    x[6]      0
 PL bounds    x[6]
 LO bounds    x[7]      0
 PL bounds    x[7]
 LO bounds    x[8]      0
 PL bounds    x[8]
 LO bounds    x[9]      0
 PL bounds    x[9]
 LO bounds    x[10]     0
 PL bounds    x[10]
 LO bounds    x[11]     0
 PL bounds    x[11]
 LO bounds    x[12]     0
 PL bounds    x[12]
 LO bounds    x[13]     0
 PL bounds    x[13]
 LO bounds    x[14]     0
 PL bounds    x[14]
 LO bounds    x[15]     0
 PL bounds    x[15]
 LO bounds    x[16]     0
 PL bounds    x[16]
 LO bounds    x[17]     0
 PL bounds    x[17]
 LO bounds    x[18]     0
 PL bounds    x[18]
 LO bounds    x[19]     0
 PL bounds    x[19]
 LO bounds    x[20]     0
 PL bounds    x[20]
 LO bounds    x[21]     0
 PL bounds    x[21]
 LO bounds    x[22]     0
 PL bounds    x[22]
 LO bounds    x[23]     0
 PL bounds    x[23]
 LO bounds    x[24]     0
 PL bounds    x[24]
 LO bounds    x[25]     0
 PL bounds    x[25]
 LO bounds    x[26]     0
 PL bounds    x[26]
 LO bounds    x[27]     0
 PL bounds    x[27]
 LO bounds    x[28]     0
 PL bounds    x[28]
 LO bounds    x[29]     0
 PL bounds    x[29]
 LO bounds    x[30]     0
 PL bounds    x[30]
 LO bounds    x[31]     0
 PL bounds    x[31]
 LO bounds    x[32]     0
 PL bounds    x[32]
 LO bounds    x[33]     0
 PL bounds    x[33]
 LO bounds    x[34]     0
 PL bounds    x[34]
 LO bounds    x[35]     0
 PL bounds    x[35]
 LO bounds    x[36]     0
 PL bounds    x[36]
 LO bounds    x[37]     0
 PL bounds    x[37]
 LO bounds    x[38]     0
 PL bounds    x[38]
 LO bounds    x[39]     0
 PL bounds    x[39]
 LO bounds    x[40]     0
 PL bounds    x[40]
 LO bounds    x[41]     0
 PL bounds    x[41]
 LO bounds    x[42]     0
 PL bounds    x[42]
 LO bounds    x[43]     0
 PL bounds    x[43]
 LO bounds    x[44]     0
 PL bounds    x[44]
 LO bounds    x[45]     0
 PL bounds    x[45]
 LO bounds    x[46]     0
 PL bounds    x[46]
 LO bounds    x[47]     0
 PL bounds    x[47]
 LO bounds    x[48]     0
 PL bounds    x[48]
 LO bounds    x[49]     0
 PL bounds    x[49]
 LO bounds    x[50]     0
 PL bounds    x[50]
 LO bounds    x[51]     0
 PL bounds    x[51]
 LO bounds    x[52]     0
 PL bounds    x[52]
 LO bounds    x[53]     0
 PL bounds    x[53]
 LO bounds    x[54]     0
 PL bounds    x[54]
 LO bounds    x[55]     0
 PL bounds    x[55]
 LO bounds    x[56]     0
 PL bounds    x[56]
 LO bounds    x[57]     0
 PL bounds    x[57]
 LO bounds    x[58]     0
 PL bounds    x[58]
 LO bounds    x[59]     0
 PL bounds    x[59]
 LO bounds    x[60]     0
 PL bounds    x[60]
 LO bounds    x[61]     0
 PL bounds    x[61]
 LO bounds    x[62]     0
 PL bounds    x[62]
 LO bounds    x[63]     0
 PL bounds    x[63]
 LO bounds    x[64]     0
 PL bounds    x[64]
 LO bounds    x[65]     0
 PL bounds    x[65]
 LO bounds    x[66]     0
 PL bounds    x[66]
 LO bounds    x[67]     0
 PL bounds    x[67]
 LO bounds    x[68]     0
 PL bounds    x[68]
 LO bounds    x[69]     0
 PL bounds    x[69]
 LO bounds    x[70]     0
 PL bounds    x[70]
 LO bounds    x[71]     0
 PL bounds    x[71]
 LO bounds    x[72]     0
 PL bounds    x[72]
 LO bounds    x[73]     0
 PL bounds    x[73]
 LO bounds    x[74]     0
 PL bounds    x[74]
 LO bounds    x[75]     0
 PL bounds    x[75]
 LO bounds    x[76]     0
 PL bounds    x[76]
 LO bounds    x[77]     0
 PL bounds    x[77]
 LO bounds    x[78]     0
 PL bounds    x[78]
 LO bounds    x[79]     0
 PL bounds    x[79]
 LO bounds    x[80]     0
 PL bounds    x[80]
 LO bounds    x[81]     0
 PL bounds    x[81]
 LO bounds    x[82]     0
 PL bounds    x[82]
 LO bounds    x[83]     0
 PL bounds    x[83]
 LO bounds    x[84]     0
 PL bounds    x[84]
 LO bounds    x[85]     0
 PL bounds    x[85]
 LO bounds    x[86]     0
 PL bounds    x[86]
 LO bounds    x[87]     0
 PL bounds    x[87]
 LO bounds    x[88]     0
 PL bounds    x[88]
 LO bounds    x[89]     0
 PL bounds    x[89]
 LO bounds    x[90]     0
 PL bounds    x[90]
 LO bounds    x[91]     0
 PL bounds    x[91]
 LO bounds    x[92]     0
 PL bounds    x[92]
 LO bounds    x[93]     0
 PL bounds    x[93]
 LO bounds    x[94]     0
 PL bounds    x[94]
 LO bounds    x[95]     0
 PL bounds    x[95]
 LO bounds    x[96]     0
 PL bounds    x[96]
 LO bounds    x[97]     0
 PL bounds    x[97]
 LO bounds    x[98]     0
 PL bounds    x[98]
 LO bounds    x[99]     0
 PL bounds    x[99]
 LO bounds    x[100]    0
 PL bounds    x[100]
ENDATA
